p cnf 166 146
-1 4 13 19 30 34 38 41 45 103 114 137 -138 -139 -140 -141 -142 -143 -144 -145 -146 -147 -148 -149 -150 -151 -152 -153 -154 -155 -159 -160 -161 -162 -163 -164 -165 -166 0 
-2 138 -137 -139 -140 -141 -142 -143 -144 -145 -146 -147 -148 -149 -150 -151 -152 -153 -154 -155 -159 -160 -161 -162 -163 -164 -165 -166 0 
-3 7 18 22 33 35 47 60 73 77 78 79 80 88 89 98 102 106 107 110 116 123 129 -4 1 13 19 30 34 38 41 45 103 114 139 -137 -138 -140 -141 -142 -143 -144 -145 -146 -147 -148 -149 -150 -151 -152 -153 -154 -155 -159 -160 -161 -162 -163 -164 -165 -166 0 
-5 11 31 42 48 51 72 74 83 90 113 115 131 132 133 135 136 -6 26 43 44 82 84 93 105 109 140 -137 -138 -139 -141 -142 -143 -144 -145 -146 -147 -148 -149 -150 -151 -152 -153 -154 -155 -159 -160 -161 -162 -163 -164 -165 -166 0 
-7 3 18 22 33 35 47 60 73 77 78 79 80 88 89 98 102 106 107 110 116 123 129 138 -137 -139 -140 -141 -142 -143 -144 -145 -146 -147 -148 -149 -150 -151 -152 -153 -154 -155 -159 -160 -161 -162 -163 -164 -165 -166 0 
-8 91 138 -137 -139 -140 -141 -142 -143 -144 -145 -146 -147 -148 -149 -150 -151 -152 -153 -154 -155 -159 -160 -161 -162 -163 -164 -165 -166 0 
-9 140 -137 -138 -139 -141 -142 -143 -144 -145 -146 -147 -148 -149 -150 -151 -152 -153 -154 -155 -159 -160 -161 -162 -163 -164 -165 -166 0 
-10 46 -9 141 -137 -138 -139 -140 -142 -143 -144 -145 -146 -147 -148 -149 -150 -151 -152 -153 -154 -155 -159 -160 -161 -162 -163 -164 -165 -166 0 
-9 141 -137 -138 -139 -140 -142 -143 -144 -145 -146 -147 -148 -149 -150 -151 -152 -153 -154 -155 -159 -160 -161 -162 -163 -164 -165 -166 0 
-11 5 31 42 48 51 72 74 83 90 113 115 131 132 133 135 136 -12 138 -137 -139 -140 -141 -142 -143 -144 -145 -146 -147 -148 -149 -150 -151 -152 -153 -154 -155 -159 -160 -161 -162 -163 -164 -165 -166 0 
-13 1 4 19 30 34 38 41 45 103 114 138 -137 -139 -140 -141 -142 -143 -144 -145 -146 -147 -148 -149 -150 -151 -152 -153 -154 -155 -159 -160 -161 -162 -163 -164 -165 -166 0 
-14 139 -137 -138 -140 -141 -142 -143 -144 -145 -146 -147 -148 -149 -150 -151 -152 -153 -154 -155 -159 -160 -161 -162 -163 -164 -165 -166 0 
-15 76 -7 3 18 22 33 35 47 60 73 77 78 79 80 88 89 98 102 106 107 110 116 123 129 138 -137 -139 -140 -141 -142 -143 -144 -145 -146 -147 -148 -149 -150 -151 -152 -153 -154 -155 -159 -160 -161 -162 -163 -164 -165 -166 0 
-16 -17 63 137 -138 -139 -140 -141 -142 -143 -144 -145 -146 -147 -148 -149 -150 -151 -152 -153 -154 -155 -159 -160 -161 -162 -163 -164 -165 -166 0 
-5 11 31 42 48 51 72 74 83 90 113 115 131 132 133 135 136 140 -137 -138 -139 -141 -142 -143 -144 -145 -146 -147 -148 -149 -150 -151 -152 -153 -154 -155 -159 -160 -161 -162 -163 -164 -165 -166 0 
-18 3 7 22 33 35 47 60 73 77 78 79 80 88 89 98 102 106 107 110 116 123 129 140 -137 -138 -139 -141 -142 -143 -144 -145 -146 -147 -148 -149 -150 -151 -152 -153 -154 -155 -159 -160 -161 -162 -163 -164 -165 -166 0 
-19 1 4 13 30 34 38 41 45 103 114 137 -138 -139 -140 -141 -142 -143 -144 -145 -146 -147 -148 -149 -150 -151 -152 -153 -154 -155 -159 -160 -161 -162 -163 -164 -165 -166 0 
-12 -11 5 31 42 48 51 72 74 83 90 113 115 131 132 133 135 136 138 -137 -139 -140 -141 -142 -143 -144 -145 -146 -147 -148 -149 -150 -151 -152 -153 -154 -155 -159 -160 -161 -162 -163 -164 -165 -166 0 
-20 140 -137 -138 -139 -141 -142 -143 -144 -145 -146 -147 -148 -149 -150 -151 -152 -153 -154 -155 -159 -160 -161 -162 -163 -164 -165 -166 0 
-21 65 140 -137 -138 -139 -141 -142 -143 -144 -145 -146 -147 -148 -149 -150 -151 -152 -153 -154 -155 -159 -160 -161 -162 -163 -164 -165 -166 0 
-22 3 7 18 33 35 47 60 73 77 78 79 80 88 89 98 102 106 107 110 116 123 129 140 -137 -138 -139 -141 -142 -143 -144 -145 -146 -147 -148 -149 -150 -151 -152 -153 -154 -155 -159 -160 -161 -162 -163 -164 -165 -166 0 
-23 -24 118 142 -137 -138 -139 -140 -141 -143 -144 -145 -146 -147 -148 -149 -150 -151 -152 -153 -154 -155 -159 -160 -161 -162 -163 -164 -165 -166 0 
-25 -26 6 43 44 82 84 93 105 109 140 -137 -138 -139 -141 -142 -143 -144 -145 -146 -147 -148 -149 -150 -151 -152 -153 -154 -155 -159 -160 -161 -162 -163 -164 -165 -166 0 
-27 134 -11 5 31 42 48 51 72 74 83 90 113 115 131 132 133 135 136 138 -137 -139 -140 -141 -142 -143 -144 -145 -146 -147 -148 -149 -150 -151 -152 -153 -154 -155 -159 -160 -161 -162 -163 -164 -165 -166 0 
-3 7 18 22 33 35 47 60 73 77 78 79 80 88 89 98 102 106 107 110 116 123 129 139 -137 -138 -140 -141 -142 -143 -144 -145 -146 -147 -148 -149 -150 -151 -152 -153 -154 -155 -159 -160 -161 -162 -163 -164 -165 -166 0 
-28 138 -137 -139 -140 -141 -142 -143 -144 -145 -146 -147 -148 -149 -150 -151 -152 -153 -154 -155 -159 -160 -161 -162 -163 -164 -165 -166 0 
-29 108 -30 1 4 13 19 34 38 41 45 103 114 -22 3 7 18 33 35 47 60 73 77 78 79 80 88 89 98 102 106 107 110 116 123 129 140 -137 -138 -139 -141 -142 -143 -144 -145 -146 -147 -148 -149 -150 -151 -152 -153 -154 -155 -159 -160 -161 -162 -163 -164 -165 -166 0 
-31 5 11 42 48 51 72 74 83 90 113 115 131 132 133 135 136 140 -137 -138 -139 -141 -142 -143 -144 -145 -146 -147 -148 -149 -150 -151 -152 -153 -154 -155 -159 -160 -161 -162 -163 -164 -165 -166 0 
-32 -33 3 7 18 22 35 47 60 73 77 78 79 80 88 89 98 102 106 107 110 116 123 129 143 -137 -138 -139 -140 -141 -142 -144 -145 -146 -147 -148 -149 -150 -151 -152 -153 -154 -155 -159 -160 -161 -162 -163 -164 -165 -166 0 
-34 1 4 13 19 30 38 41 45 103 114 143 -137 -138 -139 -140 -141 -142 -144 -145 -146 -147 -148 -149 -150 -151 -152 -153 -154 -155 -159 -160 -161 -162 -163 -164 -165 -166 0 
-32 -35 3 7 18 22 33 47 60 73 77 78 79 80 88 89 98 102 106 107 110 116 123 129 143 -137 -138 -139 -140 -141 -142 -144 -145 -146 -147 -148 -149 -150 -151 -152 -153 -154 -155 -159 -160 -161 -162 -163 -164 -165 -166 0 
-32 -36 39 144 -137 -138 -139 -140 -141 -142 -143 -145 -146 -147 -148 -149 -150 -151 -152 -153 -154 -155 -159 -160 -161 -162 -163 -164 -165 -166 0 
-37 -38 1 4 13 19 30 34 41 45 103 114 145 -137 -138 -139 -140 -141 -142 -143 -144 -146 -147 -148 -149 -150 -151 -152 -153 -154 -155 -159 -160 -161 -162 -163 -164 -165 -166 0 
-32 -39 36 144 -137 -138 -139 -140 -141 -142 -143 -145 -146 -147 -148 -149 -150 -151 -152 -153 -154 -155 -159 -160 -161 -162 -163 -164 -165 -166 0 
-40 145 -137 -138 -139 -140 -141 -142 -143 -144 -146 -147 -148 -149 -150 -151 -152 -153 -154 -155 -159 -160 -161 -162 -163 -164 -165 -166 0 
-41 1 4 13 19 30 34 38 45 103 114 146 -137 -138 -139 -140 -141 -142 -143 -144 -145 -147 -148 -149 -150 -151 -152 -153 -154 -155 -159 -160 -161 -162 -163 -164 -165 -166 0 
-42 5 11 31 48 51 72 74 83 90 113 115 131 132 133 135 136 139 -137 -138 -140 -141 -142 -143 -144 -145 -146 -147 -148 -149 -150 -151 -152 -153 -154 -155 -159 -160 -161 -162 -163 -164 -165 -166 0 
-29 108 -20 140 -137 -138 -139 -141 -142 -143 -144 -145 -146 -147 -148 -149 -150 -151 -152 -153 -154 -155 -159 -160 -161 -162 -163 -164 -165 -166 0 
-22 3 7 18 33 35 47 60 73 77 78 79 80 88 89 98 102 106 107 110 116 123 129 -5 11 31 42 48 51 72 74 83 90 113 115 131 132 133 135 136 140 -137 -138 -139 -141 -142 -143 -144 -145 -146 -147 -148 -149 -150 -151 -152 -153 -154 -155 -159 -160 -161 -162 -163 -164 -165 -166 0 
-43 6 26 44 82 84 93 105 109 137 -138 -139 -140 -141 -142 -143 -144 -145 -146 -147 -148 -149 -150 -151 -152 -153 -154 -155 -159 -160 -161 -162 -163 -164 -165 -166 0 
-44 6 26 43 82 84 93 105 109 147 -137 -138 -139 -140 -141 -142 -143 -144 -145 -146 -148 -149 -150 -151 -152 -153 -154 -155 -159 -160 -161 -162 -163 -164 -165 -166 0 
-45 1 4 13 19 30 34 38 41 103 114 -46 10 148 -137 -138 -139 -140 -141 -142 -143 -144 -145 -146 -147 -149 -150 -151 -152 -153 -154 -155 -159 -160 -161 -162 -163 -164 -165 -166 0 
-24 118 149 -137 -138 -139 -140 -141 -142 -143 -144 -145 -146 -147 -148 -150 -151 -152 -153 -154 -155 -159 -160 -161 -162 -163 -164 -165 -166 0 
-47 3 7 18 22 33 35 60 73 77 78 79 80 88 89 98 102 106 107 110 116 123 129 147 -137 -138 -139 -140 -141 -142 -143 -144 -145 -146 -148 -149 -150 -151 -152 -153 -154 -155 -159 -160 -161 -162 -163 -164 -165 -166 0 
-48 5 11 31 42 51 72 74 83 90 113 115 131 132 133 135 136 147 -137 -138 -139 -140 -141 -142 -143 -144 -145 -146 -148 -149 -150 -151 -152 -153 -154 -155 -159 -160 -161 -162 -163 -164 -165 -166 0 
-49 64 92 150 -137 -138 -139 -140 -141 -142 -143 -144 -145 -146 -147 -148 -149 -151 -152 -153 -154 -155 -159 -160 -161 -162 -163 -164 -165 -166 0 
-7 3 18 22 33 35 47 60 73 77 78 79 80 88 89 98 102 106 107 110 116 123 129 -50 138 -137 -139 -140 -141 -142 -143 -144 -145 -146 -147 -148 -149 -150 -151 -152 -153 -154 -155 -159 -160 -161 -162 -163 -164 -165 -166 0 
-51 5 11 31 42 48 72 74 83 90 113 115 131 132 133 135 136 147 -137 -138 -139 -140 -141 -142 -143 -144 -145 -146 -148 -149 -150 -151 -152 -153 -154 -155 -159 -160 -161 -162 -163 -164 -165 -166 0 
-52 140 -137 -138 -139 -141 -142 -143 -144 -145 -146 -147 -148 -149 -150 -151 -152 -153 -154 -155 -159 -160 -161 -162 -163 -164 -165 -166 0 
-53 -54 137 -138 -139 -140 -141 -142 -143 -144 -145 -146 -147 -148 -149 -150 -151 -152 -153 -154 -155 -159 -160 -161 -162 -163 -164 -165 -166 0 
-45 1 4 13 19 30 34 38 41 103 114 -53 137 -138 -139 -140 -141 -142 -143 -144 -145 -146 -147 -148 -149 -150 -151 -152 -153 -154 -155 -159 -160 -161 -162 -163 -164 -165 -166 0 
-55 56 58 144 -137 -138 -139 -140 -141 -142 -143 -145 -146 -147 -148 -149 -150 -151 -152 -153 -154 -155 -159 -160 -161 -162 -163 -164 -165 -166 0 
-30 1 4 13 19 34 38 41 45 103 114 -54 140 -137 -138 -139 -141 -142 -143 -144 -145 -146 -147 -148 -149 -150 -151 -152 -153 -154 -155 -159 -160 -161 -162 -163 -164 -165 -166 0 
-56 55 58 -57 140 -137 -138 -139 -141 -142 -143 -144 -145 -146 -147 -148 -149 -150 -151 -152 -153 -154 -155 -159 -160 -161 -162 -163 -164 -165 -166 0 
-58 55 56 -5 11 31 42 48 51 72 74 83 90 113 115 131 132 133 135 136 140 -137 -138 -139 -141 -142 -143 -144 -145 -146 -147 -148 -149 -150 -151 -152 -153 -154 -155 -159 -160 -161 -162 -163 -164 -165 -166 0 
-5 11 31 42 48 51 72 74 83 90 113 115 131 132 133 135 136 -45 1 4 13 19 30 34 38 41 103 114 -22 3 7 18 33 35 47 60 73 77 78 79 80 88 89 98 102 106 107 110 116 123 129 140 -137 -138 -139 -141 -142 -143 -144 -145 -146 -147 -148 -149 -150 -151 -152 -153 -154 -155 -159 -160 -161 -162 -163 -164 -165 -166 0 
-11 5 31 42 48 51 72 74 83 90 113 115 131 132 133 135 136 138 -137 -139 -140 -141 -142 -143 -144 -145 -146 -147 -148 -149 -150 -151 -152 -153 -154 -155 -159 -160 -161 -162 -163 -164 -165 -166 0 
-59 68 130 138 -137 -139 -140 -141 -142 -143 -144 -145 -146 -147 -148 -149 -150 -151 -152 -153 -154 -155 -159 -160 -161 -162 -163 -164 -165 -166 0 
-4 1 13 19 30 34 38 41 45 103 114 139 -137 -138 -140 -141 -142 -143 -144 -145 -146 -147 -148 -149 -150 -151 -152 -153 -154 -155 -159 -160 -161 -162 -163 -164 -165 -166 0 
-15 76 -60 3 7 18 22 33 35 47 73 77 78 79 80 88 89 98 102 106 107 110 116 123 129 143 -137 -138 -139 -140 -141 -142 -144 -145 -146 -147 -148 -149 -150 -151 -152 -153 -154 -155 -159 -160 -161 -162 -163 -164 -165 -166 0 
-61 149 -137 -138 -139 -140 -141 -142 -143 -144 -145 -146 -147 -148 -150 -151 -152 -153 -154 -155 -159 -160 -161 -162 -163 -164 -165 -166 0 
-62 126 151 -137 -138 -139 -140 -141 -142 -143 -144 -145 -146 -147 -148 -149 -150 -152 -153 -154 -155 -159 -160 -161 -162 -163 -164 -165 -166 0 
-63 17 -7 3 18 22 33 35 47 60 73 77 78 79 80 88 89 98 102 106 107 110 116 123 129 138 -137 -139 -140 -141 -142 -143 -144 -145 -146 -147 -148 -149 -150 -151 -152 -153 -154 -155 -159 -160 -161 -162 -163 -164 -165 -166 0 
-64 49 92 151 -137 -138 -139 -140 -141 -142 -143 -144 -145 -146 -147 -148 -149 -150 -152 -153 -154 -155 -159 -160 -161 -162 -163 -164 -165 -166 0 
-65 21 -66 146 -137 -138 -139 -140 -141 -142 -143 -144 -145 -147 -148 -149 -150 -151 -152 -153 -154 -155 -159 -160 -161 -162 -163 -164 -165 -166 0 
-67 151 -137 -138 -139 -140 -141 -142 -143 -144 -145 -146 -147 -148 -149 -150 -152 -153 -154 -155 -159 -160 -161 -162 -163 -164 -165 -166 0 
-68 59 130 143 -137 -138 -139 -140 -141 -142 -144 -145 -146 -147 -148 -149 -150 -151 -152 -153 -154 -155 -159 -160 -161 -162 -163 -164 -165 -166 0 
-69 152 -137 -138 -139 -140 -141 -142 -143 -144 -145 -146 -147 -148 -149 -150 -151 -153 -154 -155 -159 -160 -161 -162 -163 -164 -165 -166 0 
-70 152 -137 -138 -139 -140 -141 -142 -143 -144 -145 -146 -147 -148 -149 -150 -151 -153 -154 -155 -159 -160 -161 -162 -163 -164 -165 -166 0 
-71 140 -137 -138 -139 -141 -142 -143 -144 -145 -146 -147 -148 -149 -150 -151 -152 -153 -154 -155 -159 -160 -161 -162 -163 -164 -165 -166 0 
-63 17 -5 11 31 42 48 51 72 74 83 90 113 115 131 132 133 135 136 140 -137 -138 -139 -141 -142 -143 -144 -145 -146 -147 -148 -149 -150 -151 -152 -153 -154 -155 -159 -160 -161 -162 -163 -164 -165 -166 0 
-72 5 11 31 42 48 51 74 83 90 113 115 131 132 133 135 136 138 -137 -139 -140 -141 -142 -143 -144 -145 -146 -147 -148 -149 -150 -151 -152 -153 -154 -155 -159 -160 -161 -162 -163 -164 -165 -166 0 
-64 49 92 -73 3 7 18 22 33 35 47 60 77 78 79 80 88 89 98 102 106 107 110 116 123 129 151 -137 -138 -139 -140 -141 -142 -143 -144 -145 -146 -147 -148 -149 -150 -152 -153 -154 -155 -159 -160 -161 -162 -163 -164 -165 -166 0 
-74 5 11 31 42 48 51 72 83 90 113 115 131 132 133 135 136 -15 76 151 -137 -138 -139 -140 -141 -142 -143 -144 -145 -146 -147 -148 -149 -150 -152 -153 -154 -155 -159 -160 -161 -162 -163 -164 -165 -166 0 
-75 151 -137 -138 -139 -140 -141 -142 -143 -144 -145 -146 -147 -148 -149 -150 -152 -153 -154 -155 -159 -160 -161 -162 -163 -164 -165 -166 0 
-76 15 -20 140 -137 -138 -139 -141 -142 -143 -144 -145 -146 -147 -148 -149 -150 -151 -152 -153 -154 -155 -159 -160 -161 -162 -163 -164 -165 -166 0 
-24 118 141 -137 -138 -139 -140 -142 -143 -144 -145 -146 -147 -148 -149 -150 -151 -152 -153 -154 -155 -159 -160 -161 -162 -163 -164 -165 -166 0 
-10 46 -24 118 141 -137 -138 -139 -140 -142 -143 -144 -145 -146 -147 -148 -149 -150 -151 -152 -153 -154 -155 -159 -160 -161 -162 -163 -164 -165 -166 0 
-77 3 7 18 22 33 35 47 60 73 78 79 80 88 89 98 102 106 107 110 116 123 129 153 -137 -138 -139 -140 -141 -142 -143 -144 -145 -146 -147 -148 -149 -150 -151 -152 -154 -155 -159 -160 -161 -162 -163 -164 -165 -166 0 
-78 3 7 18 22 33 35 47 60 73 77 79 80 88 89 98 102 106 107 110 116 123 129 153 -137 -138 -139 -140 -141 -142 -143 -144 -145 -146 -147 -148 -149 -150 -151 -152 -154 -155 -159 -160 -161 -162 -163 -164 -165 -166 0 
-79 3 7 18 22 33 35 47 60 73 77 78 80 88 89 98 102 106 107 110 116 123 129 153 -137 -138 -139 -140 -141 -142 -143 -144 -145 -146 -147 -148 -149 -150 -151 -152 -154 -155 -159 -160 -161 -162 -163 -164 -165 -166 0 
-80 3 7 18 22 33 35 47 60 73 77 78 79 88 89 98 102 106 107 110 116 123 129 137 -138 -139 -140 -141 -142 -143 -144 -145 -146 -147 -148 -149 -150 -151 -152 -153 -154 -155 -159 -160 -161 -162 -163 -164 -165 -166 0 
-12 -81 154 -137 -138 -139 -140 -141 -142 -143 -144 -145 -146 -147 -148 -149 -150 -151 -152 -153 -155 -159 -160 -161 -162 -163 -164 -165 -166 0 
-22 3 7 18 33 35 47 60 73 77 78 79 80 88 89 98 102 106 107 110 116 123 129 -82 6 26 43 44 84 93 105 109 140 -137 -138 -139 -141 -142 -143 -144 -145 -146 -147 -148 -149 -150 -151 -152 -153 -154 -155 -159 -160 -161 -162 -163 -164 -165 -166 0 
-83 5 11 31 42 48 51 72 74 90 113 115 131 132 133 135 136 154 -137 -138 -139 -140 -141 -142 -143 -144 -145 -146 -147 -148 -149 -150 -151 -152 -153 -155 -159 -160 -161 -162 -163 -164 -165 -166 0 
-84 6 26 43 44 82 93 105 109 150 -137 -138 -139 -140 -141 -142 -143 -144 -145 -146 -147 -148 -149 -151 -152 -153 -154 -155 -159 -160 -161 -162 -163 -164 -165 -166 0 
-75 150 -137 -138 -139 -140 -141 -142 -143 -144 -145 -146 -147 -148 -149 -151 -152 -153 -154 -155 -159 -160 -161 -162 -163 -164 -165 -166 0 
-85 150 -137 -138 -139 -140 -141 -142 -143 -144 -145 -146 -147 -148 -149 -151 -152 -153 -154 -155 -159 -160 -161 -162 -163 -164 -165 -166 0 
-86 142 -137 -138 -139 -140 -141 -143 -144 -145 -146 -147 -148 -149 -150 -151 -152 -153 -154 -155 -159 -160 -161 -162 -163 -164 -165 -166 0 
-12 -87 138 -137 -139 -140 -141 -142 -143 -144 -145 -146 -147 -148 -149 -150 -151 -152 -153 -154 -155 -159 -160 -161 -162 -163 -164 -165 -166 0 
-63 17 -88 3 7 18 22 33 35 47 60 73 77 78 79 80 89 98 102 106 107 110 116 123 129 149 -137 -138 -139 -140 -141 -142 -143 -144 -145 -146 -147 -148 -150 -151 -152 -153 -154 -155 -159 -160 -161 -162 -163 -164 -165 -166 0 
-89 3 7 18 22 33 35 47 60 73 77 78 79 80 88 98 102 106 107 110 116 123 129 -25 152 -137 -138 -139 -140 -141 -142 -143 -144 -145 -146 -147 -148 -149 -150 -151 -153 -154 -155 -159 -160 -161 -162 -163 -164 -165 -166 0 
-90 5 11 31 42 48 51 72 74 83 113 115 131 132 133 135 136 155 -137 -138 -139 -140 -141 -142 -143 -144 -145 -146 -147 -148 -149 -150 -151 -152 -153 -154 -159 -160 -161 -162 -163 -164 -165 -166 0 
-91 8 138 -137 -139 -140 -141 -142 -143 -144 -145 -146 -147 -148 -149 -150 -151 -152 -153 -154 -155 -159 -160 -161 -162 -163 -164 -165 -166 0 
-5 11 31 42 48 51 72 74 83 90 113 115 131 132 133 135 136 -30 1 4 13 19 34 38 41 45 103 114 140 -137 -138 -139 -141 -142 -143 -144 -145 -146 -147 -148 -149 -150 -151 -152 -153 -154 -155 -159 -160 -161 -162 -163 -164 -165 -166 0 
-87 138 -137 -139 -140 -141 -142 -143 -144 -145 -146 -147 -148 -149 -150 -151 -152 -153 -154 -155 -159 -160 -161 -162 -163 -164 -165 -166 0 
-92 49 64 -93 6 26 43 44 82 84 105 109 156 -94 -137 -138 -139 -140 -141 -142 -143 -144 -145 -146 -147 -148 -149 -150 -151 -152 -153 -154 -155 -159 -160 -161 -162 -163 -164 -165 -166 0 
-94 -86 142 -137 -138 -139 -140 -141 -143 -144 -145 -146 -147 -148 -149 -150 -151 -152 -153 -154 -155 -159 -160 -161 -162 -163 -164 -165 -166 0 
-92 49 64 157 -137 -138 -139 -140 -141 -142 -143 -144 -145 -146 -147 -148 -149 -150 -151 -152 -153 -154 -155 -159 -160 -161 -162 -163 -164 -165 -166 0 
-95 96 158 -137 -138 -139 -140 -141 -142 -143 -144 -145 -146 -147 -148 -149 -150 -151 -152 -153 -154 -155 -159 -160 -161 -162 -163 -164 -165 -166 0 
-96 95 157 -137 -138 -139 -140 -141 -142 -143 -144 -145 -146 -147 -148 -149 -150 -151 -152 -153 -154 -155 -159 -160 -161 -162 -163 -164 -165 -166 0 
-97 119 158 -137 -138 -139 -140 -141 -142 -143 -144 -145 -146 -147 -148 -149 -150 -151 -152 -153 -154 -155 -159 -160 -161 -162 -163 -164 -165 -166 0 
-92 49 64 -98 3 7 18 22 33 35 47 60 73 77 78 79 80 88 89 102 106 107 110 116 123 129 -99 120 124 156 -94 -137 -138 -139 -140 -141 -142 -143 -144 -145 -146 -147 -148 -149 -150 -151 -152 -153 -154 -155 -159 -160 -161 -162 -163 -164 -165 -166 0 
-96 95 158 -137 -138 -139 -140 -141 -142 -143 -144 -145 -146 -147 -148 -149 -150 -151 -152 -153 -154 -155 -159 -160 -161 -162 -163 -164 -165 -166 0 
-96 95 156 -94 -137 -138 -139 -140 -141 -142 -143 -144 -145 -146 -147 -148 -149 -150 -151 -152 -153 -154 -155 -159 -160 -161 -162 -163 -164 -165 -166 0 
-100 -86 142 -137 -138 -139 -140 -141 -143 -144 -145 -146 -147 -148 -149 -150 -151 -152 -153 -154 -155 -159 -160 -161 -162 -163 -164 -165 -166 0 
-101 117 -22 3 7 18 33 35 47 60 73 77 78 79 80 88 89 98 102 106 107 110 116 123 129 140 -137 -138 -139 -141 -142 -143 -144 -145 -146 -147 -148 -149 -150 -151 -152 -153 -154 -155 -159 -160 -161 -162 -163 -164 -165 -166 0 
-102 3 7 18 22 33 35 47 60 73 77 78 79 80 88 89 98 106 107 110 116 123 129 159 -137 -138 -139 -140 -141 -142 -143 -144 -145 -146 -147 -148 -149 -150 -151 -152 -153 -154 -155 -160 -161 -162 -163 -164 -165 -166 0 
-103 1 4 13 19 30 34 38 41 45 114 143 -137 -138 -139 -140 -141 -142 -144 -145 -146 -147 -148 -149 -150 -151 -152 -153 -154 -155 -159 -160 -161 -162 -163 -164 -165 -166 0 
-104 146 -137 -138 -139 -140 -141 -142 -143 -144 -145 -147 -148 -149 -150 -151 -152 -153 -154 -155 -159 -160 -161 -162 -163 -164 -165 -166 0 
-105 6 26 43 44 82 84 93 109 146 -137 -138 -139 -140 -141 -142 -143 -144 -145 -147 -148 -149 -150 -151 -152 -153 -154 -155 -159 -160 -161 -162 -163 -164 -165 -166 0 
-106 3 7 18 22 33 35 47 60 73 77 78 79 80 88 89 98 102 107 110 116 123 129 160 -137 -138 -139 -140 -141 -142 -143 -144 -145 -146 -147 -148 -149 -150 -151 -152 -153 -154 -155 -159 -161 -162 -163 -164 -165 -166 0 
-107 3 7 18 22 33 35 47 60 73 77 78 79 80 88 89 98 102 106 110 116 123 129 145 -137 -138 -139 -140 -141 -142 -143 -144 -146 -147 -148 -149 -150 -151 -152 -153 -154 -155 -159 -160 -161 -162 -163 -164 -165 -166 0 
-108 29 -109 6 26 43 44 82 84 93 105 152 -137 -138 -139 -140 -141 -142 -143 -144 -145 -146 -147 -148 -149 -150 -151 -153 -154 -155 -159 -160 -161 -162 -163 -164 -165 -166 0 
-110 3 7 18 22 33 35 47 60 73 77 78 79 80 88 89 98 102 106 107 116 123 129 146 -137 -138 -139 -140 -141 -142 -143 -144 -145 -147 -148 -149 -150 -151 -152 -153 -154 -155 -159 -160 -161 -162 -163 -164 -165 -166 0 
-27 134 -111 152 -137 -138 -139 -140 -141 -142 -143 -144 -145 -146 -147 -148 -149 -150 -151 -153 -154 -155 -159 -160 -161 -162 -163 -164 -165 -166 0 
-112 161 -137 -138 -139 -140 -141 -142 -143 -144 -145 -146 -147 -148 -149 -150 -151 -152 -153 -154 -155 -159 -160 -162 -163 -164 -165 -166 0 
-113 5 11 31 42 48 51 72 74 83 90 115 131 132 133 135 136 -114 1 4 13 19 30 34 38 41 45 103 152 -137 -138 -139 -140 -141 -142 -143 -144 -145 -146 -147 -148 -149 -150 -151 -153 -154 -155 -159 -160 -161 -162 -163 -164 -165 -166 0 
-12 145 -137 -138 -139 -140 -141 -142 -143 -144 -146 -147 -148 -149 -150 -151 -152 -153 -154 -155 -159 -160 -161 -162 -163 -164 -165 -166 0 
-115 5 11 31 42 48 51 72 74 83 90 113 131 132 133 135 136 147 -137 -138 -139 -140 -141 -142 -143 -144 -145 -146 -148 -149 -150 -151 -152 -153 -154 -155 -159 -160 -161 -162 -163 -164 -165 -166 0 
-116 3 7 18 22 33 35 47 60 73 77 78 79 80 88 89 98 102 106 107 110 123 129 147 -137 -138 -139 -140 -141 -142 -143 -144 -145 -146 -148 -149 -150 -151 -152 -153 -154 -155 -159 -160 -161 -162 -163 -164 -165 -166 0 
-9 -24 118 140 -137 -138 -139 -141 -142 -143 -144 -145 -146 -147 -148 -149 -150 -151 -152 -153 -154 -155 -159 -160 -161 -162 -163 -164 -165 -166 0 
-24 118 162 -137 -138 -139 -140 -141 -142 -143 -144 -145 -146 -147 -148 -149 -150 -151 -152 -153 -154 -155 -159 -160 -161 -163 -164 -165 -166 0 
-117 101 -9 -24 118 140 -137 -138 -139 -141 -142 -143 -144 -145 -146 -147 -148 -149 -150 -151 -152 -153 -154 -155 -159 -160 -161 -162 -163 -164 -165 -166 0 
-118 24 -24 118 146 -137 -138 -139 -140 -141 -142 -143 -144 -145 -147 -148 -149 -150 -151 -152 -153 -154 -155 -159 -160 -161 -162 -163 -164 -165 -166 0 
-119 97 142 -137 -138 -139 -140 -141 -143 -144 -145 -146 -147 -148 -149 -150 -151 -152 -153 -154 -155 -159 -160 -161 -162 -163 -164 -165 -166 0 
-120 99 124 -121 163 -137 -138 -139 -140 -141 -142 -143 -144 -145 -146 -147 -148 -149 -150 -151 -152 -153 -154 -155 -159 -160 -161 -162 -164 -165 -166 0 
-54 140 -137 -138 -139 -141 -142 -143 -144 -145 -146 -147 -148 -149 -150 -151 -152 -153 -154 -155 -159 -160 -161 -162 -163 -164 -165 -166 0 
-10 46 -122 -24 118 141 -137 -138 -139 -140 -142 -143 -144 -145 -146 -147 -148 -149 -150 -151 -152 -153 -154 -155 -159 -160 -161 -162 -163 -164 -165 -166 0 
-122 -24 118 141 -137 -138 -139 -140 -142 -143 -144 -145 -146 -147 -148 -149 -150 -151 -152 -153 -154 -155 -159 -160 -161 -162 -163 -164 -165 -166 0 
-123 3 7 18 22 33 35 47 60 73 77 78 79 80 88 89 98 102 106 107 110 116 129 -23 -24 118 137 -138 -139 -140 -141 -142 -143 -144 -145 -146 -147 -148 -149 -150 -151 -152 -153 -154 -155 -159 -160 -161 -162 -163 -164 -165 -166 0 
-124 99 120 -105 6 26 43 44 82 84 93 109 164 -137 -138 -139 -140 -141 -142 -143 -144 -145 -146 -147 -148 -149 -150 -151 -152 -153 -154 -155 -159 -160 -161 -162 -163 -165 -166 0 
-125 164 -137 -138 -139 -140 -141 -142 -143 -144 -145 -146 -147 -148 -149 -150 -151 -152 -153 -154 -155 -159 -160 -161 -162 -163 -165 -166 0 
-126 62 151 -137 -138 -139 -140 -141 -142 -143 -144 -145 -146 -147 -148 -149 -150 -152 -153 -154 -155 -159 -160 -161 -162 -163 -164 -165 -166 0 
-75 -127 151 -137 -138 -139 -140 -141 -142 -143 -144 -145 -146 -147 -148 -149 -150 -152 -153 -154 -155 -159 -160 -161 -162 -163 -164 -165 -166 0 
-128 151 -137 -138 -139 -140 -141 -142 -143 -144 -145 -146 -147 -148 -149 -150 -152 -153 -154 -155 -159 -160 -161 -162 -163 -164 -165 -166 0 
-108 29 -129 3 7 18 22 33 35 47 60 73 77 78 79 80 88 89 98 102 106 107 110 116 123 138 -137 -139 -140 -141 -142 -143 -144 -145 -146 -147 -148 -149 -150 -151 -152 -153 -154 -155 -159 -160 -161 -162 -163 -164 -165 -166 0 
-130 59 68 165 -137 -138 -139 -140 -141 -142 -143 -144 -145 -146 -147 -148 -149 -150 -151 -152 -153 -154 -155 -159 -160 -161 -162 -163 -164 -166 0 
-131 5 11 31 42 48 51 72 74 83 90 113 115 132 133 135 136 144 -137 -138 -139 -140 -141 -142 -143 -145 -146 -147 -148 -149 -150 -151 -152 -153 -154 -155 -159 -160 -161 -162 -163 -164 -165 -166 0 
-132 5 11 31 42 48 51 72 74 83 90 113 115 131 133 135 136 144 -137 -138 -139 -140 -141 -142 -143 -145 -146 -147 -148 -149 -150 -151 -152 -153 -154 -155 -159 -160 -161 -162 -163 -164 -165 -166 0 
-133 5 11 31 42 48 51 72 74 83 90 113 115 131 132 135 136 166 -137 -138 -139 -140 -141 -142 -143 -144 -145 -146 -147 -148 -149 -150 -151 -152 -153 -154 -155 -159 -160 -161 -162 -163 -164 -165 0 
-76 15 -134 27 151 -137 -138 -139 -140 -141 -142 -143 -144 -145 -146 -147 -148 -149 -150 -152 -153 -154 -155 -159 -160 -161 -162 -163 -164 -165 -166 0 
-36 39 144 -137 -138 -139 -140 -141 -142 -143 -145 -146 -147 -148 -149 -150 -151 -152 -153 -154 -155 -159 -160 -161 -162 -163 -164 -165 -166 0 
-135 5 11 31 42 48 51 72 74 83 90 113 115 131 132 133 136 161 -137 -138 -139 -140 -141 -142 -143 -144 -145 -146 -147 -148 -149 -150 -151 -152 -153 -154 -155 -159 -160 -162 -163 -164 -165 -166 0 
-32 -136 5 11 31 42 48 51 72 74 83 90 113 115 131 132 133 135 143 -137 -138 -139 -140 -141 -142 -144 -145 -146 -147 -148 -149 -150 -151 -152 -153 -154 -155 -159 -160 -161 -162 -163 -164 -165 -166 0 
-123 3 7 18 22 33 35 47 60 73 77 78 79 80 88 89 98 102 106 107 110 116 129 137 -138 -139 -140 -141 -142 -143 -144 -145 -146 -147 -148 -149 -150 -151 -152 -153 -154 -155 -159 -160 -161 -162 -163 -164 -165 -166 0 
